-173.0 9.0 8.0 3.0 9.0 2.0 4.0 4.0 5.0 6.0 5.0 8.0 4.0 6.0 6.0 8.0 4.0 8.0 4.0 8.0 5.0 3.0 7.0 0.0 6.0 7.0 8.0 3.0 9.0 6.0 8.0 
9.0 -113.0 1.0 8.0 9.0 9.0 4.0 2.0 3.0 1.0 1.0 2.0 10.0 2.0 4.0 4.0 2.0 7.0 4.0 9.0 2.0 5.0 3.0 7.0 3.0 2.0 0.0 0.0 0.0 0.0 0.0 
8.0 1.0 -134.0 6.0 1.0 6.0 6.0 7.0 0.0 7.0 0.0 4.0 8.0 0.0 5.0 7.0 4.0 9.0 9.0 5.0 4.0 0.0 3.0 5.0 1.0 6.0 0.0 8.0 1.0 4.0 9.0 
3.0 8.0 6.0 -156.0 5.0 10.0 8.0 9.0 3.0 7.0 7.0 3.0 3.0 0.0 6.0 5.0 10.0 5.0 4.0 2.0 3.0 6.0 3.0 6.0 6.0 0.0 0.0 7.0 10.0 8.0 3.0 
9.0 9.0 1.0 5.0 -156.0 2.0 1.0 8.0 3.0 6.0 4.0 3.0 1.0 4.0 9.0 2.0 8.0 5.0 1.0 4.0 7.0 0.0 10.0 10.0 5.0 6.0 7.0 10.0 10.0 2.0 4.0 
2.0 9.0 6.0 10.0 2.0 -168.0 5.0 9.0 3.0 6.0 3.0 2.0 1.0 5.0 9.0 3.0 10.0 6.0 3.0 10.0 2.0 5.0 7.0 0.0 2.0 7.0 8.0 8.0 8.0 8.0 9.0 
4.0 4.0 6.0 8.0 1.0 5.0 -144.0 4.0 7.0 6.0 0.0 0.0 7.0 3.0 9.0 0.0 6.0 9.0 0.0 5.0 3.0 10.0 6.0 8.0 4.0 2.0 9.0 0.0 3.0 10.0 5.0 
4.0 2.0 7.0 9.0 8.0 9.0 4.0 -160.0 4.0 1.0 7.0 7.0 5.0 0.0 9.0 0.0 9.0 5.0 4.0 9.0 8.0 0.0 6.0 3.0 9.0 1.0 7.0 6.0 7.0 9.0 1.0 
5.0 3.0 0.0 3.0 3.0 3.0 7.0 4.0 -146.0 0.0 1.0 6.0 3.0 4.0 1.0 3.0 4.0 10.0 3.0 9.0 2.0 7.0 9.0 8.0 8.0 9.0 10.0 3.0 7.0 9.0 2.0 
6.0 1.0 7.0 7.0 6.0 6.0 6.0 1.0 0.0 -143.0 3.0 3.0 7.0 3.0 1.0 0.0 7.0 0.0 0.0 7.0 9.0 8.0 6.0 5.0 8.0 7.0 3.0 6.0 8.0 5.0 7.0 
5.0 1.0 0.0 7.0 4.0 3.0 0.0 7.0 1.0 3.0 -123.0 6.0 10.0 6.0 3.0 8.0 7.0 0.0 3.0 4.0 7.0 10.0 0.0 2.0 6.0 8.0 2.0 5.0 3.0 0.0 2.0 
8.0 2.0 4.0 3.0 3.0 2.0 0.0 7.0 6.0 3.0 6.0 -171.0 1.0 6.0 3.0 5.0 5.0 10.0 6.0 10.0 8.0 7.0 6.0 4.0 5.0 6.0 10.0 7.0 10.0 8.0 10.0 
4.0 10.0 8.0 3.0 1.0 1.0 7.0 5.0 3.0 7.0 10.0 1.0 -146.0 4.0 5.0 0.0 9.0 3.0 7.0 3.0 7.0 3.0 3.0 5.0 2.0 1.0 5.0 10.0 6.0 5.0 8.0 
6.0 2.0 0.0 0.0 4.0 5.0 3.0 0.0 4.0 3.0 6.0 6.0 4.0 -149.0 9.0 2.0 9.0 7.0 6.0 10.0 6.0 3.0 1.0 9.0 8.0 7.0 2.0 2.0 8.0 7.0 10.0 
6.0 4.0 5.0 6.0 9.0 9.0 9.0 9.0 1.0 1.0 3.0 3.0 5.0 9.0 -149.0 1.0 0.0 5.0 3.0 2.0 3.0 8.0 4.0 7.0 4.0 6.0 3.0 3.0 8.0 9.0 4.0 
8.0 4.0 7.0 5.0 2.0 3.0 0.0 0.0 3.0 0.0 8.0 5.0 0.0 2.0 1.0 -129.0 9.0 7.0 3.0 1.0 1.0 7.0 8.0 9.0 1.0 8.0 7.0 2.0 7.0 8.0 3.0 
4.0 2.0 4.0 10.0 8.0 10.0 6.0 9.0 4.0 7.0 7.0 5.0 9.0 9.0 0.0 9.0 -172.0 6.0 0.0 4.0 2.0 4.0 4.0 6.0 7.0 3.0 10.0 7.0 6.0 5.0 5.0 
8.0 7.0 9.0 5.0 5.0 6.0 9.0 5.0 10.0 0.0 0.0 10.0 3.0 7.0 5.0 7.0 6.0 -187.0 7.0 6.0 5.0 10.0 6.0 10.0 0.0 10.0 7.0 7.0 4.0 6.0 7.0 
4.0 4.0 9.0 4.0 1.0 3.0 0.0 4.0 3.0 0.0 3.0 6.0 7.0 6.0 3.0 3.0 0.0 7.0 -140.0 5.0 9.0 2.0 8.0 5.0 8.0 8.0 6.0 6.0 7.0 6.0 3.0 
8.0 9.0 5.0 2.0 4.0 10.0 5.0 9.0 9.0 7.0 4.0 10.0 3.0 10.0 2.0 1.0 4.0 6.0 5.0 -151.0 2.0 7.0 3.0 6.0 0.0 5.0 3.0 3.0 1.0 1.0 7.0 
5.0 2.0 4.0 3.0 7.0 2.0 3.0 8.0 2.0 9.0 7.0 8.0 7.0 6.0 3.0 1.0 2.0 5.0 9.0 2.0 -161.0 10.0 9.0 4.0 4.0 8.0 3.0 6.0 6.0 9.0 7.0 
3.0 5.0 0.0 6.0 0.0 5.0 10.0 0.0 7.0 8.0 10.0 7.0 3.0 3.0 8.0 7.0 4.0 10.0 2.0 7.0 10.0 -161.0 4.0 8.0 6.0 9.0 7.0 5.0 4.0 2.0 1.0 
7.0 3.0 3.0 3.0 10.0 7.0 6.0 6.0 9.0 6.0 0.0 6.0 3.0 1.0 4.0 8.0 4.0 6.0 8.0 3.0 9.0 4.0 -148.0 1.0 0.0 7.0 0.0 6.0 9.0 1.0 8.0 
0.0 7.0 5.0 6.0 10.0 0.0 8.0 3.0 8.0 5.0 2.0 4.0 5.0 9.0 7.0 9.0 6.0 10.0 5.0 6.0 4.0 8.0 1.0 -153.0 4.0 10.0 1.0 0.0 2.0 7.0 1.0 
6.0 3.0 1.0 6.0 5.0 2.0 4.0 9.0 8.0 8.0 6.0 5.0 2.0 8.0 4.0 1.0 7.0 0.0 8.0 0.0 4.0 6.0 0.0 4.0 -130.0 4.0 1.0 7.0 0.0 2.0 9.0 
7.0 2.0 6.0 0.0 6.0 7.0 2.0 1.0 9.0 7.0 8.0 6.0 1.0 7.0 6.0 8.0 3.0 10.0 8.0 5.0 8.0 9.0 7.0 10.0 4.0 -183.0 10.0 0.0 9.0 10.0 7.0 
8.0 0.0 0.0 0.0 7.0 8.0 9.0 7.0 10.0 3.0 2.0 10.0 5.0 2.0 3.0 7.0 10.0 7.0 6.0 3.0 3.0 7.0 0.0 1.0 1.0 10.0 -145.0 0.0 1.0 10.0 5.0 
3.0 0.0 8.0 7.0 10.0 8.0 0.0 6.0 3.0 6.0 5.0 7.0 10.0 2.0 3.0 2.0 7.0 7.0 6.0 3.0 6.0 5.0 6.0 0.0 7.0 0.0 0.0 -136.0 4.0 2.0 3.0 
9.0 0.0 1.0 10.0 10.0 8.0 3.0 7.0 7.0 8.0 3.0 10.0 6.0 8.0 8.0 7.0 6.0 4.0 7.0 1.0 6.0 4.0 9.0 2.0 0.0 9.0 1.0 4.0 -169.0 9.0 2.0 
6.0 0.0 4.0 8.0 2.0 8.0 10.0 9.0 9.0 5.0 0.0 8.0 5.0 7.0 9.0 8.0 5.0 6.0 6.0 1.0 9.0 2.0 1.0 7.0 2.0 10.0 10.0 2.0 9.0 -169.0 1.0 
8.0 0.0 9.0 3.0 4.0 9.0 5.0 1.0 2.0 7.0 2.0 10.0 8.0 10.0 4.0 3.0 5.0 7.0 3.0 7.0 7.0 1.0 8.0 1.0 9.0 7.0 5.0 3.0 2.0 1.0 -151.0 

